Route #1: 16 59 5 32 52 12 49
Route #2: 48 17 14 28
Route #3: 43 53 2 33 7 31 54
Route #4: 56 9 57 42 22
Route #5: 13 6 11 26 55 4 35
Route #6: 39 10 41 38 1 34 37 40 46
Route #7: 18 19 23 21 30 36 50 58 25
Route #8: 45 24 20 3 29 27
Route #9: 47 15 44 8 51

Cost: 3586.509905244507
